20
1 0 17
2 0 2
2 1 4
3 0 11
3 1 17
3 2 26
4 0 12
4 1 8
4 2 3
4 3 13
5 0 1
5 1 13
5 2 17
5 3 4
5 4 12
6 0 10
6 1 2
6 2 1
6 3 19
6 4 19
6 5 11
7 0 7
7 1 19
7 2 10
7 3 15
7 4 10
7 5 15
7 6 4
8 0 13
8 1 23
8 2 22
8 3 12
8 4 3
8 5 5
8 6 5
8 7 9
9 0 25
9 1 4
9 2 9
9 3 10
9 4 26
9 5 12
9 6 20
9 7 22
9 8 14
10 0 18
10 1 1
10 2 14
10 3 6
10 4 9
10 5 12
10 6 10
10 7 26
10 8 3
10 9 12
11 0 9
11 1 19
11 2 6
11 3 19
11 4 26
11 5 21
11 6 2
11 7 21
11 8 19
11 9 5
11 10 7
12 0 9
12 1 14
12 2 24
12 3 21
12 4 2
12 5 24
12 6 8
12 7 19
12 8 17
12 9 9
12 10 25
12 11 7
13 0 22
13 1 3
13 2 16
13 3 6
13 4 22
13 5 16
13 6 9
13 7 24
13 8 25
13 9 17
13 10 16
13 11 26
13 12 15
14 0 25
14 1 4
14 2 24
14 3 5
14 4 3
14 5 20
14 6 9
14 7 8
14 8 17
14 9 17
14 10 22
14 11 18
14 12 23
14 13 13
15 0 15
15 1 8
15 2 2
15 3 16
15 4 4
15 5 4
15 6 13
15 7 1
15 8 7
15 9 1
15 10 19
15 11 6
15 12 24
15 13 4
15 14 13
16 0 16
16 1 16
16 2 16
16 3 15
16 4 3
16 5 13
16 6 2
16 7 10
16 8 3
16 9 9
16 10 7
16 11 23
16 12 14
16 13 10
16 14 3
16 15 14
17 0 9
17 1 17
17 2 23
17 3 11
17 4 23
17 5 17
17 6 24
17 7 17
17 8 18
17 9 20
17 10 26
17 11 4
17 12 15
17 13 10
17 14 6
17 15 2
17 16 7
18 0 13
18 1 12
18 2 10
18 3 20
18 4 25
18 5 12
18 6 13
18 7 15
18 8 6
18 9 14
18 10 3
18 11 22
18 12 13
18 13 25
18 14 17
18 15 16
18 16 6
18 17 25
19 0 6
19 1 15
19 2 11
19 3 8
19 4 8
19 5 16
19 6 9
19 7 2
19 8 14
19 9 2
19 10 25
19 11 7
19 12 14
19 13 2
19 14 19
19 15 6
19 16 24
19 17 14
19 18 21
